problems/csplib-prob110/ArmiesOfQueens-models/compact/O2/minion/model_1_1-08-solution000001.solution
language Essence 1.3

letting black be {(1, 1), (1, 2), (1, 3), (1, 4), (1, 7), (2, 2), (2, 3)}
$ Visualisation for black
$ 1 1
$ 1 2
$ 1 3
$ 1 4
$ 1 7
$ 2 2
$ 2 3

letting white be {(3, 8), (4, 8), (6, 5), (7, 5), (7, 6), (8, 5), (8, 6)}
$ Visualisation for white
$ 3 8
$ 4 8
$ 6 5
$ 7 5
$ 7 6
$ 8 5
$ 8 6

